cost: 590.82
Route 1:           0    2   16   45   39   19    0
Route 2:           0   30    4   46   25   10   24   13   38   34   31   27   29   26    0
Route 3:           0   48   40   36   11    5   41   44   37    6   33   22   14    0
Route 4:           0   17   12   47   21   23   18   28   35   50    7   49   43    9    3   20    8   15   32   42    1    0
